NAME          
ROWS
 N  OBJ
 L  c2
 L  c3
 L  c4
 L  c5
 L  c6
 G  c1
COLUMNS
    ss[1]     c1        1
    ss[1]     OBJ       1000
    s[1]      c2        1
    s[1]      OBJ       -1000
    s[2]      c3        1
    s[2]      OBJ       -1000
    s[3]      c4        1
    s[3]      OBJ       -1000
    s[4]      c5        1
    s[4]      OBJ       -1000
    s[5]      c6        1
    s[5]      OBJ       -1000
    MARKER    'MARKER'                 'INTORG'
    x[1]      c2        523
    x[1]      c3        524
    x[1]      c4        441
    x[1]      c5        959
    x[1]      c6        1000
    x[1]      c1        556
    x[1]      OBJ       -490
    x[2]      c2        940
    x[2]      c3        304
    x[2]      c4        777
    x[2]      c5        912
    x[2]      c6        430
    x[2]      c1        125
    x[2]      OBJ       -863
    x[3]      c2        933
    x[3]      c3        525
    x[3]      c4        73
    x[3]      c5        469
    x[3]      c6        888
    x[3]      c1        736
    x[3]      OBJ       -108
    x[4]      c2        411
    x[4]      c3        400
    x[4]      c4        948
    x[4]      c5        37
    x[4]      c6        258
    x[4]      c1        557
    x[4]      OBJ       -54
    x[5]      c2        125
    x[5]      c3        928
    x[5]      c4        126
    x[5]      c5        671
    x[5]      c6        727
    x[5]      c1        301
    x[5]      OBJ       -275
    x[6]      c2        834
    x[6]      c3        370
    x[6]      c4        873
    x[6]      c5        16
    x[6]      c6        557
    x[6]      c1        6
    x[6]      OBJ       -955
    x[7]      c2        298
    x[7]      c3        589
    x[7]      c4        984
    x[7]      c5        465
    x[7]      c6        270
    x[7]      c1        111
    x[7]      OBJ       -416
    x[8]      c2        671
    x[8]      c3        986
    x[8]      c4        192
    x[8]      c5        366
    x[8]      c6        509
    x[8]      c1        16
    x[8]      OBJ       -766
    x[9]      c2        664
    x[9]      c3        933
    x[9]      c4        590
    x[9]      c5        172
    x[9]      c6        493
    x[9]      c1        704
    x[9]      OBJ       -231
    x[10]     c2        901
    x[10]     c3        168
    x[10]     c4        139
    x[10]     c5        940
    x[10]     c6        538
    x[10]     c1        952
    x[10]     OBJ       -53
    x[11]     c2        236
    x[11]     c3        661
    x[11]     c4        260
    x[11]     c5        636
    x[11]     c6        178
    x[11]     c1        408
    x[11]     OBJ       -240
    x[12]     c2        382
    x[12]     c3        28
    x[12]     c4        494
    x[12]     c5        467
    x[12]     c6        468
    x[12]     c1        492
    x[12]     OBJ       -42
    x[13]     c2        381
    x[13]     c3        349
    x[13]     c4        352
    x[13]     c5        250
    x[13]     c6        266
    x[13]     c1        163
    x[13]     OBJ       -495
    x[14]     c2        789
    x[14]     c3        864
    x[14]     c4        215
    x[14]     c5        120
    x[14]     c6        104
    x[14]     c1        938
    x[14]     OBJ       -9
    x[15]     c2        613
    x[15]     c3        305
    x[15]     c4        786
    x[15]     c5        678
    x[15]     c6        848
    x[15]     c1        315
    x[15]     OBJ       -772
    x[16]     c2        954
    x[16]     c3        74
    x[16]     c4        264
    x[16]     c5        210
    x[16]     c6        850
    x[16]     c1        949
    x[16]     OBJ       154
    x[17]     c2        637
    x[17]     c3        692
    x[17]     c4        486
    x[17]     c5        328
    x[17]     c6        931
    x[17]     c1        670
    x[17]     OBJ       -38
    x[18]     c2        438
    x[18]     c3        502
    x[18]     c4        318
    x[18]     c5        910
    x[18]     c6        477
    x[18]     c1        1000
    x[18]     OBJ       -52
    x[19]     c2        911
    x[19]     c3        177
    x[19]     c4        489
    x[19]     c5        529
    x[19]     c6        528
    x[19]     c1        457
    x[19]     OBJ       -488
    x[20]     c2        459
    x[20]     c3        461
    x[20]     c4        266
    x[20]     c5        620
    x[20]     c6        525
    x[20]     c1        816
    x[20]     OBJ       -71
    x[21]     c2        630
    x[21]     c3        752
    x[21]     c4        668
    x[21]     c5        1
    x[21]     c6        882
    x[21]     c1        357
    x[21]     OBJ       -587
    x[22]     c2        722
    x[22]     c3        562
    x[22]     c4        263
    x[22]     c5        18
    x[22]     c6        287
    x[22]     c1        495
    x[22]     OBJ       -324
    x[23]     c2        929
    x[23]     c3        708
    x[23]     c4        489
    x[23]     c5        284
    x[23]     c6        200
    x[23]     c1        916
    x[23]     OBJ       183
    x[24]     c2        225
    x[24]     c3        733
    x[24]     c4        11
    x[24]     c5        940
    x[24]     c6        93
    x[24]     c1        852
    x[24]     OBJ       -2
    x[25]     c2        463
    x[25]     c3        956
    x[25]     c4        139
    x[25]     c5        931
    x[25]     c6        697
    x[25]     c1        614
    x[25]     OBJ       -402
    x[26]     c2        702
    x[26]     c3        858
    x[26]     c4        301
    x[26]     c5        8
    x[26]     c6        974
    x[26]     c1        161
    x[26]     OBJ       -671
    x[27]     c2        870
    x[27]     c3        535
    x[27]     c4        37
    x[27]     c5        121
    x[27]     c6        498
    x[27]     c1        60
    x[27]     OBJ       -745
    x[28]     c2        787
    x[28]     c3        848
    x[28]     c4        132
    x[28]     c5        10
    x[28]     c6        20
    x[28]     c1        382
    x[28]     OBJ       -349
    x[29]     c2        577
    x[29]     c3        592
    x[29]     c4        831
    x[29]     c5        728
    x[29]     c6        490
    x[29]     c1        373
    x[29]     OBJ       -584
    x[30]     c2        119
    x[30]     c3        701
    x[30]     c4        738
    x[30]     c5        790
    x[30]     c6        969
    x[30]     c1        570
    x[30]     OBJ       -418
    x[31]     c2        835
    x[31]     c3        219
    x[31]     c4        727
    x[31]     c5        171
    x[31]     c6        26
    x[31]     c1        182
    x[31]     OBJ       -345
    x[32]     c2        795
    x[32]     c3        597
    x[32]     c4        459
    x[32]     c5        613
    x[32]     c6        578
    x[32]     c1        934
    x[32]     OBJ       -24
    x[33]     c2        313
    x[33]     c3        774
    x[33]     c4        737
    x[33]     c5        200
    x[33]     c6        897
    x[33]     c1        129
    x[33]     OBJ       -549
    x[34]     c2        938
    x[34]     c3        716
    x[34]     c4        818
    x[34]     c5        73
    x[34]     c6        130
    x[34]     c1        542
    x[34]     OBJ       -489
    x[35]     c2        239
    x[35]     c3        450
    x[35]     c4        304
    x[35]     c5        882
    x[35]     c6        198
    x[35]     c1        767
    x[35]     OBJ       111
    x[36]     c2        751
    x[36]     c3        871
    x[36]     c4        988
    x[36]     c5        138
    x[36]     c6        253
    x[36]     c1        964
    x[36]     OBJ       -47
    x[37]     c2        736
    x[37]     c3        84
    x[37]     c4        702
    x[37]     c5        83
    x[37]     c6        916
    x[37]     c1        896
    x[37]     OBJ       278
    x[38]     c2        447
    x[38]     c3        881
    x[38]     c4        144
    x[38]     c5        969
    x[38]     c6        864
    x[38]     c1        350
    x[38]     OBJ       -400
    x[39]     c2        81
    x[39]     c3        239
    x[39]     c4        156
    x[39]     c5        105
    x[39]     c6        891
    x[39]     c1        178
    x[39]     OBJ       -180
    x[40]     c2        984
    x[40]     c3        83
    x[40]     c4        180
    x[40]     c5        55
    x[40]     c6        714
    x[40]     c1        557
    x[40]     OBJ       -74
    x[41]     c2        529
    x[41]     c3        285
    x[41]     c4        885
    x[41]     c5        335
    x[41]     c6        48
    x[41]     c1        975
    x[41]     OBJ       -1
    x[42]     c2        683
    x[42]     c3        309
    x[42]     c4        289
    x[42]     c5        75
    x[42]     c6        497
    x[42]     c1        70
    x[42]     OBJ       -707
    x[43]     c2        67
    x[43]     c3        713
    x[43]     c4        199
    x[43]     c5        46
    x[43]     c6        963
    x[43]     c1        226
    x[43]     OBJ       -421
    x[44]     c2        55
    x[44]     c3        16
    x[44]     c4        493
    x[44]     c5        909
    x[44]     c6        255
    x[44]     c1        356
    x[44]     OBJ       -225
    x[45]     c2        21
    x[45]     c3        47
    x[45]     c4        657
    x[45]     c5        774
    x[45]     c6        370
    x[45]     c1        404
    x[45]     OBJ       -380
    x[46]     c2        192
    x[46]     c3        475
    x[46]     c4        234
    x[46]     c5        858
    x[46]     c6        84
    x[46]     c1        79
    x[46]     OBJ       -600
    x[47]     c2        776
    x[47]     c3        541
    x[47]     c4        866
    x[47]     c5        863
    x[47]     c6        769
    x[47]     c1        833
    x[47]     OBJ       -403
    x[48]     c2        797
    x[48]     c3        592
    x[48]     c4        952
    x[48]     c5        665
    x[48]     c6        765
    x[48]     c1        616
    x[48]     OBJ       -269
    x[49]     c2        248
    x[49]     c3        610
    x[49]     c4        50
    x[49]     c5        845
    x[49]     c6        656
    x[49]     c1        575
    x[49]     OBJ       -163
    x[50]     c2        253
    x[50]     c3        165
    x[50]     c4        834
    x[50]     c5        812
    x[50]     c6        767
    x[50]     c1        987
    x[50]     OBJ       336
    x[51]     c2        405
    x[51]     c3        990
    x[51]     c4        891
    x[51]     c5        549
    x[51]     c6        16
    x[51]     c1        340
    x[51]     OBJ       -520
    x[52]     c2        600
    x[52]     c3        378
    x[52]     c4        398
    x[52]     c5        338
    x[52]     c6        334
    x[52]     c1        794
    x[52]     OBJ       158
    x[53]     c2        706
    x[53]     c3        45
    x[53]     c4        604
    x[53]     c5        460
    x[53]     c6        749
    x[53]     c1        321
    x[53]     OBJ       -268
    x[54]     c2        188
    x[54]     c3        642
    x[54]     c4        791
    x[54]     c5        214
    x[54]     c6        806
    x[54]     c1        337
    x[54]     OBJ       -581
    x[55]     c2        882
    x[55]     c3        870
    x[55]     c4        8
    x[55]     c5        42
    x[55]     c6        966
    x[55]     c1        580
    x[55]     OBJ       -32
    x[56]     c2        28
    x[56]     c3        605
    x[56]     c4        917
    x[56]     c5        952
    x[56]     c6        378
    x[56]     c1        920
    x[56]     OBJ       337
    x[57]     c2        165
    x[57]     c3        856
    x[57]     c4        76
    x[57]     c5        152
    x[57]     c6        247
    x[57]     c1        425
    x[57]     OBJ       -96
    x[58]     c2        912
    x[58]     c3        812
    x[58]     c4        266
    x[58]     c5        808
    x[58]     c6        126
    x[58]     c1        170
    x[58]     OBJ       -686
    x[59]     c2        368
    x[59]     c3        833
    x[59]     c4        233
    x[59]     c5        169
    x[59]     c6        860
    x[59]     c1        955
    x[59]     OBJ       -74
    x[60]     c2        896
    x[60]     c3        837
    x[60]     c4        322
    x[60]     c5        161
    x[60]     c6        601
    x[60]     c1        581
    x[60]     OBJ       -209
    x[61]     c2        825
    x[61]     c3        512
    x[61]     c4        830
    x[61]     c5        162
    x[61]     c6        545
    x[61]     c1        739
    x[61]     OBJ       -154
    x[62]     c2        235
    x[62]     c3        83
    x[62]     c4        370
    x[62]     c5        446
    x[62]     c6        5
    x[62]     c1        622
    x[62]     OBJ       -23
    x[63]     c2        72
    x[63]     c3        54
    x[63]     c4        248
    x[63]     c5        162
    x[63]     c6        163
    x[63]     c1        473
    x[63]     OBJ       159
    x[64]     c2        739
    x[64]     c3        998
    x[64]     c4        579
    x[64]     c5        514
    x[64]     c6        487
    x[64]     c1        789
    x[64]     OBJ       -11
    x[65]     c2        873
    x[65]     c3        743
    x[65]     c4        120
    x[65]     c5        502
    x[65]     c6        447
    x[65]     c1        946
    x[66]     c2        169
    x[66]     c3        668
    x[66]     c4        976
    x[66]     c5        507
    x[66]     c6        889
    x[66]     c1        499
    x[66]     OBJ       -489
    x[67]     c2        408
    x[67]     c3        748
    x[67]     c4        554
    x[67]     c5        578
    x[67]     c6        910
    x[67]     c1        666
    x[67]     OBJ       -390
    x[68]     c2        986
    x[68]     c3        809
    x[68]     c4        890
    x[68]     c5        655
    x[68]     c6        771
    x[68]     c1        546
    x[68]     OBJ       -379
    x[69]     c2        474
    x[69]     c3        704
    x[69]     c4        364
    x[69]     c5        963
    x[69]     c6        485
    x[69]     c1        630
    x[69]     OBJ       -10
    x[70]     c2        838
    x[70]     c3        630
    x[70]     c4        488
    x[70]     c5        29
    x[70]     c6        626
    x[70]     c1        997
    x[70]     OBJ       344
    x[71]     c2        108
    x[71]     c3        414
    x[71]     c4        435
    x[71]     c5        356
    x[71]     c6        65
    x[71]     c1        462
    x[71]     OBJ       -165
    x[72]     c2        331
    x[72]     c3        25
    x[72]     c4        704
    x[72]     c5        939
    x[72]     c6        958
    x[72]     c1        750
    x[72]     OBJ       -303
    x[73]     c2        361
    x[73]     c3        723
    x[73]     c4        56
    x[73]     c5        605
    x[73]     c6        893
    x[73]     c1        841
    x[73]     OBJ       122
    x[74]     c2        360
    x[74]     c3        10
    x[74]     c4        435
    x[74]     c5        217
    x[74]     c6        985
    x[74]     c1        795
    x[74]     OBJ       -17
    x[75]     c2        790
    x[75]     c3        479
    x[75]     c4        891
    x[75]     c5        145
    x[75]     c6        156
    x[75]     c1        2
    x[75]     OBJ       -544
    x[76]     c2        206
    x[76]     c3        923
    x[76]     c4        776
    x[76]     c5        670
    x[76]     c6        892
    x[76]     c1        522
    x[76]     OBJ       -303
    x[77]     c2        258
    x[77]     c3        156
    x[77]     c4        5
    x[77]     c5        604
    x[77]     c6        253
    x[77]     c1        778
    x[77]     OBJ       150
    x[78]     c2        331
    x[78]     c3        505
    x[78]     c4        804
    x[78]     c5        821
    x[78]     c6        661
    x[78]     c1        42
    x[78]     OBJ       -903
    x[79]     c2        117
    x[79]     c3        844
    x[79]     c4        858
    x[79]     c5        121
    x[79]     c6        720
    x[79]     c1        714
    x[79]     OBJ       -137
    x[80]     c2        208
    x[80]     c3        897
    x[80]     c4        198
    x[80]     c5        434
    x[80]     c6        988
    x[80]     c1        645
    x[80]     OBJ       -272
    x[81]     c2        865
    x[81]     c3        483
    x[81]     c4        993
    x[81]     c5        818
    x[81]     c6        588
    x[81]     c1        855
    x[81]     OBJ       -12
    x[82]     c2        521
    x[82]     c3        611
    x[82]     c4        344
    x[82]     c5        720
    x[82]     c6        474
    x[82]     c1        396
    x[82]     OBJ       -260
    x[83]     c2        214
    x[83]     c3        956
    x[83]     c4        124
    x[83]     c5        711
    x[83]     c6        518
    x[83]     c1        768
    x[83]     OBJ       -149
    x[84]     c2        607
    x[84]     c3        590
    x[84]     c4        955
    x[84]     c5        804
    x[84]     c6        878
    x[84]     c1        392
    x[84]     OBJ       -462
    x[85]     c2        625
    x[85]     c3        452
    x[85]     c4        885
    x[85]     c5        615
    x[85]     c6        705
    x[85]     c1        141
    x[85]     OBJ       -522
    x[86]     c2        126
    x[86]     c3        323
    x[86]     c4        884
    x[86]     c5        745
    x[86]     c6        664
    x[86]     c1        544
    x[86]     OBJ       -219
    x[87]     c2        549
    x[87]     c3        328
    x[87]     c4        565
    x[87]     c5        134
    x[87]     c6        818
    x[87]     c1        847
    x[87]     OBJ       191
    x[88]     c2        429
    x[88]     c3        199
    x[88]     c4        42
    x[88]     c5        835
    x[88]     c6        793
    x[88]     c1        263
    x[88]     OBJ       -653
    x[89]     c2        541
    x[89]     c3        501
    x[89]     c4        94
    x[89]     c5        205
    x[89]     c6        154
    x[89]     c1        325
    x[89]     OBJ       -62
    x[90]     c2        636
    x[90]     c3        883
    x[90]     c4        558
    x[90]     c5        946
    x[90]     c6        676
    x[90]     c1        227
    x[90]     OBJ       -907
    x[91]     c2        26
    x[91]     c3        81
    x[91]     c4        19
    x[91]     c5        894
    x[91]     c6        170
    x[91]     c1        765
    x[91]     OBJ       109
    x[92]     c2        366
    x[92]     c3        14
    x[92]     c4        328
    x[92]     c5        385
    x[92]     c6        963
    x[92]     c1        128
    x[92]     OBJ       -294
    x[93]     c2        194
    x[93]     c3        953
    x[93]     c4        77
    x[93]     c5        491
    x[93]     c6        165
    x[93]     c1        10
    x[93]     OBJ       -413
    x[94]     c2        476
    x[94]     c3        88
    x[94]     c4        564
    x[94]     c5        915
    x[94]     c6        25
    x[94]     c1        973
    x[94]     OBJ       126
    x[95]     c2        956
    x[95]     c3        134
    x[95]     c4        54
    x[95]     c5        956
    x[95]     c6        742
    x[95]     c1        162
    x[95]     OBJ       -783
    x[96]     c2        568
    x[96]     c3        573
    x[96]     c4        749
    x[96]     c5        204
    x[96]     c6        661
    x[96]     c1        743
    x[96]     OBJ       170
    x[97]     c2        520
    x[97]     c3        887
    x[97]     c4        597
    x[97]     c5        449
    x[97]     c6        689
    x[97]     c1        208
    x[97]     OBJ       -637
    x[98]     c2        159
    x[98]     c3        326
    x[98]     c4        973
    x[98]     c5        862
    x[98]     c6        429
    x[98]     c1        223
    x[98]     OBJ       -742
    x[99]     c2        879
    x[99]     c3        491
    x[99]     c4        633
    x[99]     c5        596
    x[99]     c6        703
    x[99]     c1        981
    x[99]     OBJ       138
    x[100]    c2        404
    x[100]    c3        269
    x[100]    c4        469
    x[100]    c5        460
    x[100]    c6        964
    x[100]    c1        143
    x[100]    OBJ       -649
RHS
    rhs       c2        12841
    rhs       c3        13172
    rhs       c4        12088
    rhs       c5        12269
    rhs       c6        13839
    rhs       c1        1316
RANGES
BOUNDS
 LO bounds    ss[1]     0
 PL bounds    ss[1]
 MI bounds    s[1]
 UP bounds    s[1]      0
 MI bounds    s[2]
 UP bounds    s[2]      0
 MI bounds    s[3]
 UP bounds    s[3]      0
 MI bounds    s[4]
 UP bounds    s[4]      0
 MI bounds    s[5]
 UP bounds    s[5]      0
 BV bounds    x[1]
 BV bounds    x[2]
 BV bounds    x[3]
 BV bounds    x[4]
 BV bounds    x[5]
 BV bounds    x[6]
 BV bounds    x[7]
 BV bounds    x[8]
 BV bounds    x[9]
 BV bounds    x[10]
 BV bounds    x[11]
 BV bounds    x[12]
 BV bounds    x[13]
 BV bounds    x[14]
 BV bounds    x[15]
 BV bounds    x[16]
 BV bounds    x[17]
 BV bounds    x[18]
 BV bounds    x[19]
 BV bounds    x[20]
 BV bounds    x[21]
 BV bounds    x[22]
 BV bounds    x[23]
 BV bounds    x[24]
 BV bounds    x[25]
 BV bounds    x[26]
 BV bounds    x[27]
 BV bounds    x[28]
 BV bounds    x[29]
 BV bounds    x[30]
 BV bounds    x[31]
 BV bounds    x[32]
 BV bounds    x[33]
 BV bounds    x[34]
 BV bounds    x[35]
 BV bounds    x[36]
 BV bounds    x[37]
 BV bounds    x[38]
 BV bounds    x[39]
 BV bounds    x[40]
 BV bounds    x[41]
 BV bounds    x[42]
 BV bounds    x[43]
 BV bounds    x[44]
 BV bounds    x[45]
 BV bounds    x[46]
 BV bounds    x[47]
 BV bounds    x[48]
 BV bounds    x[49]
 BV bounds    x[50]
 BV bounds    x[51]
 BV bounds    x[52]
 BV bounds    x[53]
 BV bounds    x[54]
 BV bounds    x[55]
 BV bounds    x[56]
 BV bounds    x[57]
 BV bounds    x[58]
 BV bounds    x[59]
 BV bounds    x[60]
 BV bounds    x[61]
 BV bounds    x[62]
 BV bounds    x[63]
 BV bounds    x[64]
 BV bounds    x[65]
 BV bounds    x[66]
 BV bounds    x[67]
 BV bounds    x[68]
 BV bounds    x[69]
 BV bounds    x[70]
 BV bounds    x[71]
 BV bounds    x[72]
 BV bounds    x[73]
 BV bounds    x[74]
 BV bounds    x[75]
 BV bounds    x[76]
 BV bounds    x[77]
 BV bounds    x[78]
 BV bounds    x[79]
 BV bounds    x[80]
 BV bounds    x[81]
 BV bounds    x[82]
 BV bounds    x[83]
 BV bounds    x[84]
 BV bounds    x[85]
 BV bounds    x[86]
 BV bounds    x[87]
 BV bounds    x[88]
 BV bounds    x[89]
 BV bounds    x[90]
 BV bounds    x[91]
 BV bounds    x[92]
 BV bounds    x[93]
 BV bounds    x[94]
 BV bounds    x[95]
 BV bounds    x[96]
 BV bounds    x[97]
 BV bounds    x[98]
 BV bounds    x[99]
 BV bounds    x[100]
ENDATA
